9
2147483647 45 26 61 34 20 32 87 24 
45 2147483647 85 59 84 75 27 15 87 
26 85 2147483647 60 20 12 71 87 6 
61 59 60 2147483647 98 76 97 45 83 
34 84 20 98 2147483647 22 99 24 25 
20 75 12 76 22 2147483647 62 20 59 
32 27 71 97 99 62 2147483647 9 77 
87 15 87 45 24 20 9 2147483647 3 
24 87 6 83 25 59 77 3 2147483647 
